#######################################
### Exact MIP solver for the HHCRSP ###
#######################################
-- Instance file: new-instances/HHCRSP_100_20_51_0.8_R_C.txt
-- Max threads: 4
-- Time limit: 999999 seconds
-- Use initial solution: No
Trivial flow violations prevented generating 45893 variables.
Model exported.
Version identifier: 20.1.0.0 | 2020-11-10 | 9bedb6d68
CPXPARAM_Threads                                 4
CPXPARAM_TimeLimit                               999999
Parallel mode: deterministic, using up to 4 threads for concurrent optimization:
 * Starting dual Simplex on 1 thread...
 * Starting Barrier on 3 threads...
Tried aggregator 1 time.
LP Presolve eliminated 5556 rows and 1459 columns.
Reduced LP has 53766 rows, 51593 columns, and 618280 nonzeros.
Presolve time = 0.36 sec. (159.92 ticks)
Symmetry aggregator did 67242 additional substitutions.
Initializing dual steep norms . . .

Iteration log . . .
Iteration:     1   Dual objective     =             0.666667
Iteration:   458   Dual objective     =           154.666667

Dual crossover.
  Dual:  Fixing 287 variables.
      286 DMoves:  Infeasibility  1.35391705e-13  Objective  1.55666667e+02
        0 DMoves:  Infeasibility  7.65498852e-14  Objective  1.55666667e+02
  Dual:  Pushed 14, exchanged 273.
  Primal:  Fixing 140 variables.
      139 PMoves:  Infeasibility  2.38697950e-15  Objective  1.55666667e+02
        0 PMoves:  Infeasibility  3.38618023e-15  Objective  1.55666667e+02
  Primal:  Pushed 97, exchanged 43.

Dual simplex solved model.


Solution status from MIP model:
-- Processing time: 0.606 sec.
-- Memory used: 122.914 MB
-- Best bound: inf
-- Obj value: 155.667
-- Gap: inf%
-- Total distance: 467
-- Total tardiness: 0
-- Largest tardiness: 0
